(set-logic HORN)


(declare-fun |state| ( Bool Bool Bool Bool Bool (_ BitVec 32) (_ BitVec 32) (_ BitVec 32) (_ BitVec 32) (_ BitVec 32) (_ BitVec 32) (_ BitVec 32) (_ BitVec 32) (_ BitVec 32) (_ BitVec 32) (_ BitVec 32) (_ BitVec 32) (_ BitVec 32) (_ BitVec 32) (_ BitVec 32) (_ BitVec 32) (_ BitVec 32) (_ BitVec 32) (_ BitVec 32) (_ BitVec 32) (_ BitVec 32) (_ BitVec 32) (_ BitVec 32) (_ BitVec 32) (_ BitVec 32) (_ BitVec 32) (_ BitVec 32) (_ BitVec 32) ) Bool)

(assert
  (forall ( (A Bool) (B Bool) (C Bool) (D (_ BitVec 32)) (E (_ BitVec 32)) (F (_ BitVec 32)) (G (_ BitVec 32)) (H (_ BitVec 32)) (I (_ BitVec 32)) (J (_ BitVec 32)) (K (_ BitVec 32)) (L (_ BitVec 32)) (M (_ BitVec 32)) (N (_ BitVec 32)) (O (_ BitVec 32)) (P (_ BitVec 32)) (Q (_ BitVec 32)) (R (_ BitVec 32)) (S (_ BitVec 32)) (T (_ BitVec 32)) (U (_ BitVec 32)) (V (_ BitVec 32)) (W (_ BitVec 32)) (X (_ BitVec 32)) (Y (_ BitVec 32)) (Z (_ BitVec 32)) (A1 (_ BitVec 32)) (B1 (_ BitVec 32)) (C1 (_ BitVec 32)) (D1 (_ BitVec 32)) (E1 (_ BitVec 32)) (F1 Bool) (G1 Bool) ) 
    (=>
      (and
        (and (not B) (not C) (not G1) (not F1) (not A))
      )
      (state C B A F1 G1 E D F G H I K L Q S T U V W X Y Z A1 B1 C1 D1 E1 J M N O P R)
    )
  )
)
(assert
  (forall ( (A Bool) (B Bool) (C Bool) (D Bool) (E Bool) (F Bool) (G Bool) (H Bool) (I (_ BitVec 32)) (J (_ BitVec 32)) (K (_ BitVec 32)) (L (_ BitVec 32)) (M (_ BitVec 32)) (N (_ BitVec 32)) (O (_ BitVec 32)) (P (_ BitVec 32)) (Q (_ BitVec 32)) (R (_ BitVec 32)) (S (_ BitVec 32)) (T (_ BitVec 32)) (U (_ BitVec 32)) (V (_ BitVec 32)) (W (_ BitVec 32)) (X (_ BitVec 32)) (Y (_ BitVec 32)) (Z (_ BitVec 32)) (A1 (_ BitVec 32)) (B1 (_ BitVec 32)) (C1 (_ BitVec 32)) (D1 (_ BitVec 32)) (E1 (_ BitVec 32)) (F1 (_ BitVec 32)) (G1 (_ BitVec 32)) (H1 (_ BitVec 32)) (I1 (_ BitVec 32)) (J1 (_ BitVec 32)) (K1 (_ BitVec 32)) (L1 (_ BitVec 32)) (M1 (_ BitVec 32)) (N1 (_ BitVec 32)) (O1 (_ BitVec 32)) (P1 (_ BitVec 32)) (Q1 (_ BitVec 32)) (R1 (_ BitVec 32)) (S1 (_ BitVec 32)) (T1 (_ BitVec 32)) (U1 (_ BitVec 32)) (V1 (_ BitVec 32)) (W1 (_ BitVec 32)) (X1 (_ BitVec 32)) (Y1 (_ BitVec 32)) (Z1 (_ BitVec 32)) (A2 (_ BitVec 32)) (B2 (_ BitVec 32)) (C2 (_ BitVec 32)) (D2 (_ BitVec 32)) (E2 (_ BitVec 32)) (F2 (_ BitVec 32)) (G2 (_ BitVec 32)) (H2 (_ BitVec 32)) (I2 (_ BitVec 32)) (J2 (_ BitVec 32)) (K2 (_ BitVec 32)) (L2 (_ BitVec 32)) (M2 (_ BitVec 32)) (N2 (_ BitVec 32)) (O2 (_ BitVec 32)) (P2 (_ BitVec 32)) (Q2 (_ BitVec 32)) (R2 (_ BitVec 32)) (S2 Bool) (T2 Bool) ) 
    (=>
      (and
        (state C
       B
       A
       S2
       T2
       L
       J
       N
       P
       R
       T
       X
       Z
       J1
       N1
       P1
       R1
       T1
       V1
       X1
       Z1
       B2
       D2
       F2
       H2
       J2
       L2
       U
       A1
       C1
       E1
       G1
       K1)
        (let ((a!1 (and (not A)
                (not B)
                C
                (not H)
                (not G)
                (not F)
                (not E)
                D
                S2
                (not T2)
                (= J I)
                (= L K)
                (= N M)
                (= P O)
                (= R Q)
                (= T S)
                (= X W)
                (= Z Y)
                (= J1 I1)
                (= L1 K1)
                (= N1 M1)
                (= H1 G1)
                (= P1 O1)
                (= F1 E1)
                (= R1 Q1)
                (= D1 C1)
                (= T1 S1)
                (= B1 A1)
                (= V1 U1)
                (= X1 W1)
                (= Z1 Y1)
                (= V (bvadd #xffffffff U))
                (= B2 A2)
                (= D2 C2)
                (= F2 E2)
                (= H2 G2)
                (= J2 I2)
                (= L2 K2)
                (not (= ((_ extract 31 31) V) #b1))))
      (a!2 (or (and (= E2 U) (= E2 #x00000000) (= W A1))
               (and (= E2 U) (= E2 #x00000001) (not (= E2 #x00000000)) (= W C1))
               (and (= E2 U)
                    (not (= E2 #x00000001))
                    (not (= E2 #x00000000))
                    (= E2 #x00000002)
                    (= W E1))
               (and (= E2 U)
                    (not (= E2 #x00000001))
                    (not (= E2 #x00000000))
                    (not (= E2 #x00000002))
                    (= E2 #x00000003)
                    (= W G1))
               (and (= E2 U)
                    (not (= E2 #x00000001))
                    (not (= E2 #x00000000))
                    (not (= E2 #x00000002))
                    (not (= E2 #x00000003))
                    (= E2 #x00000004)
                    (= W K1))))
      (a!4 (or (and (= U1 #x00000000) (= R1 U1) (= S A1))
               (and (= U1 #x00000001)
                    (not (= U1 #x00000000))
                    (= R1 U1)
                    (= S C1))
               (and (not (= U1 #x00000001))
                    (not (= U1 #x00000000))
                    (= U1 #x00000002)
                    (= R1 U1)
                    (= S E1))
               (and (not (= U1 #x00000001))
                    (not (= U1 #x00000000))
                    (not (= U1 #x00000002))
                    (= U1 #x00000003)
                    (= R1 U1)
                    (= S G1))
               (and (not (= U1 #x00000001))
                    (not (= U1 #x00000000))
                    (not (= U1 #x00000002))
                    (not (= U1 #x00000003))
                    (= U1 #x00000004)
                    (= R1 U1)
                    (= S K1)))))
(let ((a!3 (or (and a!2 (= A2 A1) (= Q (bvadd #x00000001 U)) (= Q #x00000000))
               (and a!2
                    (= A2 C1)
                    (= Q #x00000001)
                    (= Q (bvadd #x00000001 U))
                    (not (= Q #x00000000)))
               (and a!2
                    (= A2 E1)
                    (not (= Q #x00000001))
                    (= Q (bvadd #x00000001 U))
                    (not (= Q #x00000000))
                    (= Q #x00000002))
               (and a!2
                    (= A2 G1)
                    (not (= Q #x00000001))
                    (= Q (bvadd #x00000001 U))
                    (not (= Q #x00000000))
                    (not (= Q #x00000002))
                    (= Q #x00000003))
               (and a!2
                    (= A2 K1)
                    (not (= Q #x00000001))
                    (= Q (bvadd #x00000001 U))
                    (not (= Q #x00000000))
                    (not (= Q #x00000002))
                    (not (= Q #x00000003))
                    (= Q #x00000004))))
      (a!5 (or (and a!4
                    (= K2 (bvadd #x00000001 R1))
                    (= K2 #x00000000)
                    (= S1 A1))
               (and a!4
                    (= K2 #x00000001)
                    (= K2 (bvadd #x00000001 R1))
                    (not (= K2 #x00000000))
                    (= S1 C1))
               (and a!4
                    (not (= K2 #x00000001))
                    (= K2 (bvadd #x00000001 R1))
                    (not (= K2 #x00000000))
                    (= K2 #x00000002)
                    (= S1 E1))
               (and a!4
                    (not (= K2 #x00000001))
                    (= K2 (bvadd #x00000001 R1))
                    (not (= K2 #x00000000))
                    (not (= K2 #x00000002))
                    (= K2 #x00000003)
                    (= S1 G1))
               (and a!4
                    (not (= K2 #x00000001))
                    (= K2 (bvadd #x00000001 R1))
                    (not (= K2 #x00000000))
                    (not (= K2 #x00000002))
                    (not (= K2 #x00000003))
                    (= K2 #x00000004)
                    (= S1 K1)))))
(let ((a!6 (or (and a!5
                    (= Y1 (bvadd #x00000001 R1))
                    (= W1 A1)
                    (= R1 C2)
                    (= M C2)
                    (= M #x00000000)
                    (bvsle S S1))
               (and a!5
                    (= Y1 (bvadd #x00000001 R1))
                    (= W1 C1)
                    (= R1 C2)
                    (= M C2)
                    (= M #x00000001)
                    (not (= M #x00000000))
                    (bvsle S S1))
               (and a!5
                    (= Y1 (bvadd #x00000001 R1))
                    (= W1 E1)
                    (= R1 C2)
                    (= M C2)
                    (not (= M #x00000001))
                    (not (= M #x00000000))
                    (= M #x00000002)
                    (bvsle S S1))
               (and a!5
                    (= Y1 (bvadd #x00000001 R1))
                    (= W1 G1)
                    (= R1 C2)
                    (= M C2)
                    (not (= M #x00000001))
                    (not (= M #x00000000))
                    (not (= M #x00000002))
                    (= M #x00000003)
                    (bvsle S S1))
               (and a!5
                    (= Y1 (bvadd #x00000001 R1))
                    (= W1 K1)
                    (= R1 C2)
                    (= M C2)
                    (not (= M #x00000001))
                    (not (= M #x00000000))
                    (not (= M #x00000002))
                    (not (= M #x00000003))
                    (= M #x00000004)
                    (bvsle S S1)))))
(let ((a!7 (or (and a!6 (= O1 Y1) (= O1 #x00000000) (= Y W1) (= K A1))
               (and a!6
                    (= O1 Y1)
                    (= O1 #x00000001)
                    (not (= O1 #x00000000))
                    (= Y W1)
                    (= K C1))
               (and a!6
                    (= O1 Y1)
                    (not (= O1 #x00000001))
                    (not (= O1 #x00000000))
                    (= O1 #x00000002)
                    (= Y W1)
                    (= K E1))
               (and a!6
                    (= O1 Y1)
                    (not (= O1 #x00000001))
                    (not (= O1 #x00000000))
                    (not (= O1 #x00000002))
                    (= O1 #x00000003)
                    (= Y W1)
                    (= K G1))
               (and a!6
                    (= O1 Y1)
                    (not (= O1 #x00000001))
                    (not (= O1 #x00000000))
                    (not (= O1 #x00000002))
                    (not (= O1 #x00000003))
                    (= O1 #x00000004)
                    (= Y W1)
                    (= K K1)))))
(let ((a!8 (or (and a!7
                    (= L1 K1)
                    (= H1 I1)
                    (= O I1)
                    (= K O)
                    (= I C2)
                    (not (= I #x00000001))
                    (not (= I #x00000000))
                    (not (= I #x00000002))
                    (= I #x00000003))
               (and a!7
                    (= L1 I1)
                    (= H1 G1)
                    (= O I1)
                    (= K O)
                    (= I C2)
                    (not (= I #x00000001))
                    (not (= I #x00000000))
                    (not (= I #x00000002))
                    (not (= I #x00000003))
                    (= I #x00000004))))
      (a!12 (or (and a!7
                     (= K1 Q2)
                     (= I1 P2)
                     (= O I1)
                     (= K O)
                     (= I C2)
                     (not (= I #x00000001))
                     (not (= I #x00000000))
                     (not (= I #x00000002))
                     (= I #x00000003))
                (and a!7
                     (= G1 P2)
                     (= I1 Q2)
                     (= O I1)
                     (= K O)
                     (= I C2)
                     (not (= I #x00000001))
                     (not (= I #x00000000))
                     (not (= I #x00000002))
                     (not (= I #x00000003))
                     (= I #x00000004)))))
(let ((a!9 (or (and a!8 (= F1 E1))
               (and a!7
                    (= L1 K1)
                    (= H1 G1)
                    (= F1 I1)
                    (= O I1)
                    (= K O)
                    (= I C2)
                    (not (= I #x00000001))
                    (not (= I #x00000000))
                    (= I #x00000002))))
      (a!13 (or (and a!12 (= E1 O2))
                (and a!7
                     (= G1 P2)
                     (= K1 Q2)
                     (= I1 O2)
                     (= O I1)
                     (= K O)
                     (= I C2)
                     (not (= I #x00000001))
                     (not (= I #x00000000))
                     (= I #x00000002)))))
(let ((a!10 (or (and a!9 (= D1 C1))
                (and a!7
                     (= L1 K1)
                     (= H1 G1)
                     (= F1 E1)
                     (= D1 I1)
                     (= O I1)
                     (= K O)
                     (= I C2)
                     (= I #x00000001)
                     (not (= I #x00000000)))))
      (a!14 (or (and a!13 (= C1 N2))
                (and a!7
                     (= E1 O2)
                     (= G1 P2)
                     (= K1 Q2)
                     (= I1 N2)
                     (= O I1)
                     (= K O)
                     (= I C2)
                     (= I #x00000001)
                     (not (= I #x00000000))))))
(let ((a!11 (and (not A)
                 B
                 (not C)
                 (not H)
                 G
                 (not F)
                 (not E)
                 (not D)
                 (not S2)
                 (not T2)
                 (or (and a!10 (= B1 A1))
                     (and a!7
                          (= L1 K1)
                          (= H1 G1)
                          (= F1 E1)
                          (= D1 C1)
                          (= B1 I1)
                          (= O I1)
                          (= K O)
                          (= I C2)
                          (= I #x00000000)))
                 (= R Q)
                 (= X W)
                 (= M1 Y1)
                 (not (= M1 #x00000001))
                 (not (= M1 #x00000000))
                 (not (= M1 #x00000002))
                 (not (= M1 #x00000003))
                 (not (= M1 #x00000004))
                 (= R1 Q1)
                 (= Y G2)
                 (= V U)
                 (= B2 A2)
                 (= F2 E2)
                 (= J2 I2)))
      (a!15 (or (and a!14 (= A1 M2))
                (and a!7
                     (= C1 N2)
                     (= E1 O2)
                     (= G1 P2)
                     (= K1 Q2)
                     (= I1 M2)
                     (= O I1)
                     (= K O)
                     (= I C2)
                     (= I #x00000000)))))
(let ((a!16 (or (and a!15
                     (= M1 Y1)
                     (not (= M1 #x00000001))
                     (not (= M1 #x00000000))
                     (not (= M1 #x00000002))
                     (= M1 #x00000003)
                     (= L1 Q2)
                     (= H1 G2)
                     (= Y G2))
                (and a!15
                     (= M1 Y1)
                     (not (= M1 #x00000001))
                     (not (= M1 #x00000000))
                     (not (= M1 #x00000002))
                     (not (= M1 #x00000003))
                     (= M1 #x00000004)
                     (= L1 G2)
                     (= H1 P2)
                     (= Y G2)))))
(let ((a!17 (or (and a!16 (= F1 O2))
                (and a!15
                     (= M1 Y1)
                     (not (= M1 #x00000001))
                     (not (= M1 #x00000000))
                     (= M1 #x00000002)
                     (= L1 Q2)
                     (= H1 P2)
                     (= F1 G2)
                     (= Y G2)))))
(let ((a!18 (or (and a!17 (= D1 N2))
                (and a!15
                     (= M1 Y1)
                     (= M1 #x00000001)
                     (not (= M1 #x00000000))
                     (= L1 Q2)
                     (= H1 P2)
                     (= F1 O2)
                     (= D1 G2)
                     (= Y G2)))))
(let ((a!19 (or (and a!18 (= B1 M2))
                (and a!15
                     (= M1 Y1)
                     (= M1 #x00000000)
                     (= L1 Q2)
                     (= H1 P2)
                     (= F1 O2)
                     (= D1 N2)
                     (= B1 G2)
                     (= Y G2))
                (and a!5
                     (= J I)
                     (= L K)
                     (= N M)
                     (= P O)
                     (= Z Y)
                     (= J1 I1)
                     (= L1 K1)
                     (= N1 M1)
                     (= H1 G1)
                     (= P1 O1)
                     (= F1 E1)
                     (= D1 C1)
                     (= B1 A1)
                     (= X1 W1)
                     (= Z1 Y1)
                     (= D2 C2)
                     (= H2 G2)
                     (not (bvsle S S1))))))
  (or (and (not A)
           (not B)
           (not C)
           (not H)
           (not G)
           (not F)
           (not E)
           D
           (not S2)
           (not T2)
           (= J I)
           (= L K)
           (= N M)
           (= P O)
           (= R Q)
           (= T S)
           (= X W)
           (= Z Y)
           (= J1 I1)
           (= L1 #x00000004)
           (= N1 M1)
           (= H1 #x00000003)
           (= P1 O1)
           (= F1 #x00000002)
           (= R1 Q1)
           (= D1 #x00000001)
           (= T1 S1)
           (= B1 #x00000000)
           (= V1 U1)
           (= X1 W1)
           (= Z1 Y1)
           (= V #x00000004)
           (= B2 A2)
           (= D2 C2)
           (= F2 E2)
           (= H2 G2)
           (= J2 I2)
           (= L2 K2))
      (and (not A)
           (not B)
           C
           (not H)
           (not G)
           (not F)
           E
           (not D)
           (not S2)
           (not T2)
           (= J I)
           (= L K)
           (= N M)
           (= P O)
           (= R Q)
           (= T S)
           (= X W)
           (= Z Y)
           (= Q1 #x00000000)
           (= J1 I1)
           (= L1 K1)
           (= N1 M1)
           (= H1 G1)
           (= P1 O1)
           (= F1 E1)
           (= D1 C1)
           (= T1 S1)
           (= B1 A1)
           (= V1 U1)
           (= X1 W1)
           (= Z1 Y1)
           (= V U)
           (= B2 A2)
           (= D2 C2)
           (= F2 E2)
           (= H2 G2)
           (= J2 I2)
           (= L2 K2)
           (not (bvsle U #x00000000)))
      (and (not A)
           (not B)
           C
           (not H)
           G
           (not F)
           (not E)
           D
           (not S2)
           (not T2)
           (= J I)
           (= L K)
           (= N M)
           (= P O)
           (= R Q)
           (= T S)
           (= X W)
           (= Z Y)
           (= Q1 #x00000000)
           (= J1 I1)
           (= L1 K1)
           (= N1 M1)
           (= H1 G1)
           (= P1 O1)
           (= F1 E1)
           (= D1 C1)
           (= T1 S1)
           (= B1 A1)
           (= V1 U1)
           (= X1 W1)
           (= Z1 Y1)
           (= V U)
           (= B2 A2)
           (= D2 C2)
           (= F2 E2)
           (= H2 G2)
           (= J2 I2)
           (= L2 K2)
           (bvsle U #x00000000))
      a!1
      (and (not A)
           (not B)
           C
           (not H)
           G
           (not F)
           E
           (not D)
           S2
           (not T2)
           (= J I)
           (= L K)
           (= N M)
           (= P O)
           (= R Q)
           (= T S)
           (= U (bvadd #x00000001 R2))
           (= X W)
           (= Z Y)
           (= J1 I1)
           (= L1 K1)
           (= N1 M1)
           (= H1 G1)
           (= P1 O1)
           (= F1 E1)
           (= R1 Q1)
           (= D1 C1)
           (= T1 S1)
           (= B1 A1)
           (= V1 U1)
           (= X1 W1)
           (= Z1 Y1)
           (= V #x00000000)
           (= B2 A2)
           (= D2 C2)
           (= F2 E2)
           (= H2 G2)
           (= J2 I2)
           (= L2 K2)
           (= ((_ extract 31 31) R2) #b1))
      (and (not A)
           B
           (not C)
           (not H)
           G
           (not F)
           E
           D
           S2
           (not T2)
           (= J I)
           (= L K)
           (= N M)
           (= P O)
           (= E2 U)
           (not (= E2 #x00000001))
           (not (= E2 #x00000000))
           (not (= E2 #x00000002))
           (not (= E2 #x00000003))
           (not (= E2 #x00000004))
           (= R Q)
           (= T S)
           (= X W)
           (= Z Y)
           (= J1 I1)
           (= L1 K1)
           (= N1 M1)
           (= H1 G1)
           (= P1 O1)
           (= F1 E1)
           (= R1 Q1)
           (= D1 C1)
           (= T1 S1)
           (= B1 A1)
           (= V1 U1)
           (= X1 W1)
           (= Z1 Y1)
           (= V U)
           (= B2 A2)
           (= D2 C2)
           (= H2 G2)
           (= J2 I2)
           (= L2 K2))
      (and (not A)
           B
           (not C)
           (not H)
           G
           F
           (not E)
           (not D)
           S2
           (not T2)
           a!2
           (= J I)
           (= L K)
           (= N M)
           (= P O)
           (= T S)
           (= Z Y)
           (= J1 I1)
           (= L1 K1)
           (= N1 M1)
           (= H1 G1)
           (= P1 O1)
           (= F1 E1)
           (= R1 Q1)
           (= D1 C1)
           (= T1 S1)
           (= B1 A1)
           (= V1 U1)
           (= X1 W1)
           (= Z1 Y1)
           (= V U)
           (= B2 A2)
           (= D2 C2)
           (not (= Q #x00000001))
           (= Q (bvadd #x00000001 U))
           (not (= Q #x00000000))
           (not (= Q #x00000002))
           (not (= Q #x00000003))
           (not (= Q #x00000004))
           (= H2 G2)
           (= J2 I2)
           (= L2 K2))
      (and (not A)
           B
           (not C)
           (not H)
           G
           F
           (not E)
           D
           S2
           (not T2)
           a!3
           (= J I)
           (= L K)
           (= N M)
           (= P O)
           (= T S)
           (= Z Y)
           (= J1 I1)
           (= L1 K1)
           (= N1 M1)
           (= H1 G1)
           (= P1 O1)
           (= F1 E1)
           (= R1 Q1)
           (= D1 C1)
           (= T1 S1)
           (= B1 A1)
           (= V1 U1)
           (= X1 W1)
           (= Z1 Y1)
           (= V U)
           (= D2 C2)
           (= H2 G2)
           (= J2 I2)
           (= L2 K2)
           (not (bvsle A2 W)))
      (and (not A)
           B
           (not C)
           (not H)
           G
           (not F)
           E
           (not D)
           S2
           (not T2)
           a!3
           (= J I)
           (= L K)
           (= N M)
           (= P O)
           (= T S)
           (= Z Y)
           (= J1 I1)
           (= L1 K1)
           (= N1 M1)
           (= H1 G1)
           (= P1 O1)
           (= F1 E1)
           (= R1 Q1)
           (= D1 C1)
           (= T1 S1)
           (= B1 A1)
           (= V1 U1)
           (= X1 W1)
           (= Z1 Y1)
           (= V (bvadd #x00000001 U))
           (= D2 C2)
           (= H2 G2)
           (= J2 I2)
           (= L2 K2)
           (bvsle A2 W)
           (not (bvsle #x00000004 V)))
      (and A
           (not B)
           C
           (not H)
           G
           F
           E
           D
           S2
           (not T2)
           (= J I)
           (= L K)
           (= N M)
           (= P O)
           (= R Q)
           (= T S)
           (= X W)
           (= Z Y)
           (= J1 I1)
           (= L1 K1)
           (= N1 M1)
           (= H1 G1)
           (= P1 O1)
           (= F1 E1)
           (= R1 Q1)
           (= D1 C1)
           (= T1 S1)
           (= B1 A1)
           (= V1 U1)
           (= X1 W1)
           (= Z1 Y1)
           (= V U)
           (= B2 A2)
           (= D2 C2)
           (= F2 E2)
           (= H2 G2)
           (= J2 I2)
           (= L2 K2))
      (and A
           (not B)
           (not C)
           (not H)
           G
           F
           E
           D
           S2
           (not T2)
           (= J I)
           (= L K)
           (= N M)
           (= P O)
           (= R Q)
           (= T S)
           (= X W)
           (= Z Y)
           (= J1 I1)
           (= L1 K1)
           (= N1 M1)
           (= H1 G1)
           (= P1 O1)
           (= F1 E1)
           (= R1 Q1)
           (= D1 C1)
           (= T1 S1)
           (= B1 A1)
           (= V1 U1)
           (= X1 W1)
           (= Z1 Y1)
           (= V U)
           (= B2 A2)
           (= D2 C2)
           (= F2 E2)
           (= H2 G2)
           (= J2 I2)
           (= L2 K2))
      (and (not A)
           B
           C
           (not H)
           G
           F
           E
           D
           S2
           (not T2)
           (= J I)
           (= L K)
           (= N M)
           (= P O)
           (= R Q)
           (= T S)
           (= X W)
           (= Z Y)
           (= J1 I1)
           (= L1 K1)
           (= N1 M1)
           (= H1 G1)
           (= P1 O1)
           (= F1 E1)
           (= R1 Q1)
           (= D1 C1)
           (= T1 S1)
           (= B1 A1)
           (= V1 U1)
           (= X1 W1)
           (= Z1 Y1)
           (= V U)
           (= B2 A2)
           (= D2 C2)
           (= F2 E2)
           (= H2 G2)
           (= J2 I2)
           (= L2 K2))
      (and (not A)
           B
           (not C)
           (not H)
           (not G)
           (not F)
           E
           D
           (not S2)
           (not T2)
           (= J I)
           (= L K)
           (= N M)
           (= P O)
           (= R Q)
           (= T S)
           (= X W)
           (= Z Y)
           (not (= U1 #x00000001))
           (not (= U1 #x00000000))
           (not (= U1 #x00000002))
           (not (= U1 #x00000003))
           (not (= U1 #x00000004))
           (= J1 I1)
           (= L1 K1)
           (= N1 M1)
           (= H1 G1)
           (= P1 O1)
           (= F1 E1)
           (= R1 U1)
           (= R1 Q1)
           (= D1 C1)
           (= T1 S1)
           (= B1 A1)
           (= X1 W1)
           (= Z1 Y1)
           (= V U)
           (= B2 A2)
           (= D2 C2)
           (= F2 E2)
           (= H2 G2)
           (= J2 I2)
           (= L2 K2))
      (and (not A)
           B
           (not C)
           (not H)
           (not G)
           F
           (not E)
           (not D)
           (not S2)
           (not T2)
           a!4
           (= J I)
           (not (= K2 #x00000001))
           (= K2 (bvadd #x00000001 R1))
           (not (= K2 #x00000000))
           (not (= K2 #x00000002))
           (not (= K2 #x00000003))
           (not (= K2 #x00000004))
           (= L K)
           (= N M)
           (= P O)
           (= R Q)
           (= X W)
           (= Z Y)
           (= J1 I1)
           (= L1 K1)
           (= N1 M1)
           (= H1 G1)
           (= P1 O1)
           (= F1 E1)
           (= R1 Q1)
           (= D1 C1)
           (= T1 S1)
           (= B1 A1)
           (= X1 W1)
           (= Z1 Y1)
           (= V U)
           (= B2 A2)
           (= D2 C2)
           (= F2 E2)
           (= H2 G2)
           (= J2 I2))
      (and (not A)
           B
           (not C)
           (not H)
           (not G)
           F
           (not E)
           D
           (not S2)
           (not T2)
           a!5
           (= J I)
           (= L K)
           (= P O)
           (= R Q)
           (= Y1 (bvadd #x00000001 R1))
           (= X W)
           (= Z Y)
           (= J1 I1)
           (= L1 K1)
           (= N1 M1)
           (= H1 G1)
           (= P1 O1)
           (= F1 E1)
           (= R1 C2)
           (= R1 Q1)
           (= D1 C1)
           (= B1 A1)
           (= X1 W1)
           (= V U)
           (= B2 A2)
           (= F2 E2)
           (= H2 G2)
           (= M C2)
           (not (= M #x00000001))
           (not (= M #x00000000))
           (not (= M #x00000002))
           (not (= M #x00000003))
           (not (= M #x00000004))
           (= J2 I2)
           (bvsle S S1))
      (and (not A)
           B
           (not C)
           (not H)
           (not G)
           F
           E
           (not D)
           (not S2)
           (not T2)
           a!6
           (= J I)
           (= L K)
           (= P O)
           (= R Q)
           (= X W)
           (= O1 Y1)
           (not (= O1 #x00000001))
           (not (= O1 #x00000000))
           (not (= O1 #x00000002))
           (not (= O1 #x00000003))
           (not (= O1 #x00000004))
           (= J1 I1)
           (= L1 K1)
           (= N1 M1)
           (= H1 G1)
           (= F1 E1)
           (= R1 Q1)
           (= D1 C1)
           (= B1 A1)
           (= Y W1)
           (= V U)
           (= B2 A2)
           (= F2 E2)
           (= H2 G2)
           (= J2 I2))
      (and (not A)
           B
           (not C)
           (not H)
           (not G)
           F
           E
           D
           (not S2)
           (not T2)
           a!7
           (= R Q)
           (= X W)
           (= L1 K1)
           (= N1 M1)
           (= H1 G1)
           (= F1 E1)
           (= R1 Q1)
           (= D1 C1)
           (= B1 A1)
           (= V U)
           (= B2 A2)
           (= F2 E2)
           (= O I1)
           (= H2 G2)
           (= J2 I2)
           (= K O)
           (= I C2)
           (not (= I #x00000001))
           (not (= I #x00000000))
           (not (= I #x00000002))
           (not (= I #x00000003))
           (not (= I #x00000004)))
      a!11
      (and (not A)
           B
           (not C)
           (not H)
           (not G)
           (not F)
           E
           (not D)
           (not S2)
           (not T2)
           a!19
           (= R Q)
           (= X W)
           (= Q1 (bvadd #x00000001 R1))
           (= V U)
           (= B2 A2)
           (= F2 E2)
           (= J2 I2)
           (not (bvsle U Q1)))
      (and (not A)
           B
           (not C)
           (not H)
           G
           (not F)
           (not E)
           D
           (not S2)
           (not T2)
           a!19
           (= R Q)
           (= X W)
           (= Q1 (bvadd #x00000001 R1))
           (= V U)
           (= B2 A2)
           (= F2 E2)
           (= J2 I2)
           (bvsle U Q1))
      (and (not A)
           (not B)
           (not C)
           (not H)
           G
           F
           E
           D
           S2
           (not T2)
           (= J I)
           (= L K)
           (= N M)
           (= P O)
           (= R Q)
           (= T S)
           (= X W)
           (= Z Y)
           (= J1 I1)
           (= L1 K1)
           (= N1 M1)
           (= H1 G1)
           (= P1 O1)
           (= F1 E1)
           (= R1 Q1)
           (= D1 C1)
           (= T1 S1)
           (= B1 A1)
           (= V1 U1)
           (= X1 W1)
           (= Z1 Y1)
           (= V U)
           (= B2 A2)
           (= D2 C2)
           (= F2 E2)
           (= H2 G2)
           (= J2 I2)
           (= L2 K2))
      (and A
           B
           C
           (not H)
           G
           F
           E
           D
           (not S2)
           (not T2)
           (= J I)
           (= L K)
           (= N M)
           (= P O)
           (= R Q)
           (= T S)
           (= X W)
           (= Z Y)
           (= J1 I1)
           (= L1 K1)
           (= N1 M1)
           (= H1 G1)
           (= P1 O1)
           (= F1 E1)
           (= R1 Q1)
           (= D1 C1)
           (= T1 S1)
           (= B1 A1)
           (= V1 U1)
           (= X1 W1)
           (= Z1 Y1)
           (= V U)
           (= B2 A2)
           (= D2 C2)
           (= F2 E2)
           (= H2 G2)
           (= J2 I2)
           (= L2 K2))
      (and A
           B
           (not C)
           (not H)
           G
           F
           E
           D
           (not S2)
           (not T2)
           (= J I)
           (= L K)
           (= N M)
           (= P O)
           (= R Q)
           (= T S)
           (= X W)
           (= Z Y)
           (= J1 I1)
           (= L1 K1)
           (= N1 M1)
           (= H1 G1)
           (= P1 O1)
           (= F1 E1)
           (= R1 Q1)
           (= D1 C1)
           (= T1 S1)
           (= B1 A1)
           (= V1 U1)
           (= X1 W1)
           (= Z1 Y1)
           (= V U)
           (= B2 A2)
           (= D2 C2)
           (= F2 E2)
           (= H2 G2)
           (= J2 I2)
           (= L2 K2))
      (and A
           (not B)
           C
           (not H)
           G
           F
           E
           D
           (not S2)
           (not T2)
           (= J I)
           (= L K)
           (= N M)
           (= P O)
           (= R Q)
           (= T S)
           (= X W)
           (= Z Y)
           (= J1 I1)
           (= L1 K1)
           (= N1 M1)
           (= H1 G1)
           (= P1 O1)
           (= F1 E1)
           (= R1 Q1)
           (= D1 C1)
           (= T1 S1)
           (= B1 A1)
           (= V1 U1)
           (= X1 W1)
           (= Z1 Y1)
           (= V U)
           (= B2 A2)
           (= D2 C2)
           (= F2 E2)
           (= H2 G2)
           (= J2 I2)
           (= L2 K2))
      (and A
           (not B)
           (not C)
           (not H)
           G
           F
           E
           D
           (not S2)
           (not T2)
           (= J I)
           (= L K)
           (= N M)
           (= P O)
           (= R Q)
           (= T S)
           (= X W)
           (= Z Y)
           (= J1 I1)
           (= L1 K1)
           (= N1 M1)
           (= H1 G1)
           (= P1 O1)
           (= F1 E1)
           (= R1 Q1)
           (= D1 C1)
           (= T1 S1)
           (= B1 A1)
           (= V1 U1)
           (= X1 W1)
           (= Z1 Y1)
           (= V U)
           (= B2 A2)
           (= D2 C2)
           (= F2 E2)
           (= H2 G2)
           (= J2 I2)
           (= L2 K2))
      (and (not A)
           B
           C
           (not H)
           G
           F
           E
           D
           (not S2)
           (not T2)
           (= J I)
           (= L K)
           (= N M)
           (= P O)
           (= R Q)
           (= T S)
           (= X W)
           (= Z Y)
           (= J1 I1)
           (= L1 K1)
           (= N1 M1)
           (= H1 G1)
           (= P1 O1)
           (= F1 E1)
           (= R1 Q1)
           (= D1 C1)
           (= T1 S1)
           (= B1 A1)
           (= V1 U1)
           (= X1 W1)
           (= Z1 Y1)
           (= V U)
           (= B2 A2)
           (= D2 C2)
           (= F2 E2)
           (= H2 G2)
           (= J2 I2)
           (= L2 K2))
      (and A B C (not H) G F E D S2 (not T2)))))))))))))))
      )
      (state D
       E
       F
       G
       H
       K
       I
       M
       O
       Q
       S
       W
       Y
       I1
       M1
       O1
       Q1
       S1
       U1
       W1
       Y1
       A2
       C2
       E2
       G2
       I2
       K2
       V
       B1
       D1
       F1
       H1
       L1)
    )
  )
)
(assert
  (forall ( (A Bool) (B Bool) (C Bool) (D (_ BitVec 32)) (E (_ BitVec 32)) (F (_ BitVec 32)) (G (_ BitVec 32)) (H (_ BitVec 32)) (I (_ BitVec 32)) (J (_ BitVec 32)) (K (_ BitVec 32)) (L (_ BitVec 32)) (M (_ BitVec 32)) (N (_ BitVec 32)) (O (_ BitVec 32)) (P (_ BitVec 32)) (Q (_ BitVec 32)) (R (_ BitVec 32)) (S (_ BitVec 32)) (T (_ BitVec 32)) (U (_ BitVec 32)) (V (_ BitVec 32)) (W (_ BitVec 32)) (X (_ BitVec 32)) (Y (_ BitVec 32)) (Z (_ BitVec 32)) (A1 (_ BitVec 32)) (B1 (_ BitVec 32)) (C1 (_ BitVec 32)) (D1 (_ BitVec 32)) (E1 (_ BitVec 32)) (F1 Bool) (G1 Bool) ) 
    (=>
      (and
        (state C B A F1 G1 E D F G H I K L Q S T U V W X Y Z A1 B1 C1 D1 E1 J M N O P R)
        (and (= B true) (= C true) (not G1) (= F1 true) (= A true))
      )
      false
    )
  )
)

(check-sat)
(exit)
